language ESSENCE' 1.0
letting values be [[8, 5, 2, 1, 0, 9, 0, 0, 4], [0, 0, 0, 0, 0, 2, 0, 0, 9], [0, 7, 9, 0, 0, 0, 0, 0, 0], [3, 0, 4, 2, 7, 0, 8, 9, 5], [0, 9, 5, 3, 1, 8, 4, 6, 2], [0, 6, 0, 4, 0, 0, 0, 1, 0], [6, 4, 0, 5, 0, 1, 9, 0, 8], [0, 0, 1, 9, 0, 7, 0, 4, 3], [0, 8, 0, 6, 0, 4, 2, 5, 1]]